NAME : rc205.2.9087854.tour
COMMENT : Length = 9087854
COMMENT : Found by LKH [Keld Helsgaun] Tue May  2 05:49:38 2017
TYPE : TOUR
DIMENSION : 29
TOUR_SECTION
1
29
28
11
9
13
7
8
10
20
23
21
17
26
25
18
16
3
15
6
12
14
27
2
4
22
24
5
19
-1
EOF
